12
0 70 58 94 76 84 30 50 60 13 8 66 
93 0 61 56 5 26 44 25 21 42 31 67 
20 55 0 9 43 7 7 74 94 27 48 36 
65 16 88 0 18 41 38 44 13 27 70 80 
97 22 82 16 0 84 96 49 85 37 81 81 
3 27 74 34 5 0 63 49 73 70 32 18 
96 91 13 21 18 33 0 4 65 34 92 9 
4 77 7 37 84 83 54 0 20 58 81 62 
45 48 44 37 28 64 97 54 0 20 91 94 
1 18 88 24 41 58 97 93 13 0 37 46 
11 18 11 48 26 99 5 60 23 38 0 65 
77 70 2 33 43 45 56 58 1 25 27 0 
